PARAMETER_FILE = even/LKH_uncomplete_graph/x10/nei/par/random124.par
PROBLEM_FILE = even/LKH_uncomplete_graph/x10/nei/mat/random124.tsp
Successes/Runs = 0/10
Cost.min = 851, Cost.avg = 851.00, Cost.max = 851
Gap.min = 0.0000%, Gap.avg = 0.0000%, Gap.max = 0.0000%
Trials.min = 1000, Trials.avg = 1000.0, Trials.max = 1000
Time.min = 0.74 sec., Time.avg = 0.91 sec., Time.max = 1.08 sec.
Time.total = 9.28 sec.
请按任意键继续. . . 
